p wcnf 211 564
w -2 0.367879 0
w 2 2.718282 0
w -3 0.367879 0
w 3 2.718282 0
w -4 0.367879 0
w 4 2.718282 0
w -5 0.367879 0
w 5 2.718282 0
w -6 0.367879 0
w 6 2.718282 0
w -8 0.367879 0
w 8 2.718282 0
w -9 0.367879 0
w 9 2.718282 0
w -10 0.367879 0
w 10 2.718282 0
w -11 0.367879 0
w 11 2.718282 0
w -13 0.367879 0
w 13 2.718282 0
w -14 0.367879 0
w 14 2.718282 0
w -15 0.367879 0
w 15 2.718282 0
w -16 0.367879 0
w 16 2.718282 0
w -17 0.367879 0
w 17 2.718282 0
w -19 0.367879 0
w 19 2.718282 0
w -20 0.367879 0
w 20 2.718282 0
w -21 0.367879 0
w 21 2.718282 0
w -22 0.367879 0
w 22 2.718282 0
w -23 0.367879 0
w 23 2.718282 0
w -25 0.367879 0
w 25 2.718282 0
w -26 0.367879 0
w 26 2.718282 0
w -27 0.367879 0
w 27 2.718282 0
w -28 0.367879 0
w 28 2.718282 0
w -29 0.367879 0
w 29 2.718282 0
w -31 0.367879 0
w 31 2.718282 0
w -32 0.367879 0
w 32 2.718282 0
w -33 0.367879 0
w 33 2.718282 0
w -34 0.367879 0
w 34 2.718282 0
w -35 0.367879 0
w 35 2.718282 0
w -37 0.367879 0
w 37 2.718282 0
w -38 0.367879 0
w 38 2.718282 0
w -39 0.367879 0
w 39 2.718282 0
w -40 0.367879 0
w 40 2.718282 0
w -42 0.367879 0
w 42 2.718282 0
w -43 0.367879 0
w 43 2.718282 0
w -45 0.367879 0
w 45 2.718282 0
w -46 0.367879 0
w 46 2.718282 0
w -47 0.367879 0
w 47 2.718282 0
w -48 0.367879 0
w 48 2.718282 0
w -49 0.367879 0
w 49 2.718282 0
w -50 0.367879 0
w 50 2.718282 0
w -52 0.367879 0
w 52 2.718282 0
w -53 0.367879 0
w 53 2.718282 0
w -55 0.367879 0
w 55 2.718282 0
w -56 0.367879 0
w 56 2.718282 0
w -58 0.367879 0
w 58 2.718282 0
w -59 0.367879 0
w 59 2.718282 0
w -60 0.367879 0
w 60 2.718282 0
w -62 0.367879 0
w 62 2.718282 0
w -63 0.367879 0
w 63 2.718282 0
w -64 0.367879 0
w 64 2.718282 0
w -65 0.367879 0
w 65 2.718282 0
w -66 0.367879 0
w 66 2.718282 0
w -68 0.367879 0
w 68 2.718282 0
w -69 0.367879 0
w 69 2.718282 0
w -71 0.367879 0
w 71 2.718282 0
w -72 0.367879 0
w 72 2.718282 0
w -73 0.367879 0
w 73 2.718282 0
w -74 0.367879 0
w 74 2.718282 0
w -75 0.367879 0
w 75 2.718282 0
w -77 0.367879 0
w 77 2.718282 0
w -79 0.367879 0
w 79 2.718282 0
w -80 0.367879 0
w 80 2.718282 0
w -81 0.367879 0
w 81 2.718282 0
w -82 0.367879 0
w 82 2.718282 0
w -84 0.367879 0
w 84 2.718282 0
w -85 0.367879 0
w 85 2.718282 0
w -86 0.367879 0
w 86 2.718282 0
w -87 0.367879 0
w 87 2.718282 0
w -88 0.367879 0
w 88 2.718282 0
w -90 0.367879 0
w 90 2.718282 0
w -92 0.367879 0
w 92 2.718282 0
w -93 0.367879 0
w 93 2.718282 0
w -94 0.367879 0
w 94 2.718282 0
w -96 0.367879 0
w 96 2.718282 0
w -97 0.367879 0
w 97 2.718282 0
w -98 0.367879 0
w 98 2.718282 0
w -100 0.367879 0
w 100 2.718282 0
w -102 0.367879 0
w 102 2.718282 0
w -103 0.367879 0
w 103 2.718282 0
w -104 0.367879 0
w 104 2.718282 0
w -106 0.367879 0
w 106 2.718282 0
w -108 0.367879 0
w 108 2.718282 0
w -109 0.367879 0
w 109 2.718282 0
w -110 0.367879 0
w 110 2.718282 0
w -113 0.367879 0
w 113 2.718282 0
w -114 0.367879 0
w 114 2.718282 0
w -115 0.367879 0
w 115 2.718282 0
w -116 0.367879 0
w 116 2.718282 0
w -119 0.367879 0
w 119 2.718282 0
w -120 0.367879 0
w 120 2.718282 0
w -122 0.367879 0
w 122 2.718282 0
w -123 0.367879 0
w 123 2.718282 0
w -126 0.367879 0
w 126 2.718282 0
w -127 0.367879 0
w 127 2.718282 0
w -129 0.367879 0
w 129 2.718282 0
w -130 0.367879 0
w 130 2.718282 0
w -131 0.367879 0
w 131 2.718282 0
w -132 0.367879 0
w 132 2.718282 0
w -134 0.367879 0
w 134 2.718282 0
w -135 0.367879 0
w 135 2.718282 0
w -136 0.367879 0
w 136 2.718282 0
w -138 0.367879 0
w 138 2.718282 0
w -139 0.367879 0
w 139 2.718282 0
w -140 0.367879 0
w 140 2.718282 0
w -142 0.367879 0
w 142 2.718282 0
w -144 0.367879 0
w 144 2.718282 0
w -146 0.367879 0
w 146 2.718282 0
w -147 0.367879 0
w 147 2.718282 0
w -148 0.367879 0
w 148 2.718282 0
w -150 0.367879 0
w 150 2.718282 0
w -151 0.367879 0
w 151 2.718282 0
w -153 0.367879 0
w 153 2.718282 0
w -154 0.367879 0
w 154 2.718282 0
w -155 0.367879 0
w 155 2.718282 0
w -156 0.367879 0
w 156 2.718282 0
w -158 0.367879 0
w 158 2.718282 0
w -161 0.367879 0
w 161 2.718282 0
w -162 0.367879 0
w 162 2.718282 0
w -163 0.367879 0
w 163 2.718282 0
w -164 0.367879 0
w 164 2.718282 0
w -166 0.367879 0
w 166 2.718282 0
w -167 0.367879 0
w 167 2.718282 0
w -169 0.367879 0
w 169 2.718282 0
w -170 0.367879 0
w 170 2.718282 0
w -172 0.367879 0
w 172 2.718282 0
w -175 0.367879 0
w 175 2.718282 0
w -176 0.367879 0
w 176 2.718282 0
w -178 0.367879 0
w 178 2.718282 0
w -179 0.367879 0
w 179 2.718282 0
w -181 0.367879 0
w 181 2.718282 0
w -184 0.367879 0
w 184 2.718282 0
w -186 0.367879 0
w 186 2.718282 0
w -187 0.367879 0
w 187 2.718282 0
w -188 0.367879 0
w 188 2.718282 0
w -189 0.367879 0
w 189 2.718282 0
w -194 0.367879 0
w 194 2.718282 0
w -196 0.367879 0
w 196 2.718282 0
w -200 0.367879 0
w 200 2.718282 0
w -202 0.367879 0
w 202 2.718282 0
w -204 0.367879 0
w 204 2.718282 0
2 1 54 0
2 -1 -54 0
-2 1 -54 0
-2 -1 54 0
3 1 91 0
3 -1 -91 0
-3 1 -91 0
-3 -1 91 0
4 1 95 0
4 -1 -95 0
-4 1 -95 0
-4 -1 95 0
5 1 128 0
5 -1 -128 0
-5 1 -128 0
-5 -1 128 0
6 1 205 0
6 -1 -205 0
-6 1 -205 0
-6 -1 205 0
8 7 165 0
8 -7 -165 0
-8 7 -165 0
-8 -7 165 0
9 7 171 0
9 -7 -171 0
-9 7 -171 0
-9 -7 171 0
10 7 185 0
10 -7 -185 0
-10 7 -185 0
-10 -7 185 0
11 7 197 0
11 -7 -197 0
-11 7 -197 0
-11 -7 197 0
13 12 54 0
13 -12 -54 0
-13 12 -54 0
-13 -12 54 0
14 12 107 0
14 -12 -107 0
-14 12 -107 0
-14 -12 107 0
15 12 118 0
15 -12 -118 0
-15 12 -118 0
-15 -12 118 0
16 12 173 0
16 -12 -173 0
-16 12 -173 0
-16 -12 173 0
17 12 197 0
17 -12 -197 0
-17 12 -197 0
-17 -12 197 0
19 18 44 0
19 -18 -44 0
-19 18 -44 0
-19 -18 44 0
20 18 128 0
20 -18 -128 0
-20 18 -128 0
-20 -18 128 0
21 18 133 0
21 -18 -133 0
-21 18 -133 0
-21 -18 133 0
22 18 168 0
22 -18 -168 0
-22 18 -168 0
-22 -18 168 0
23 18 205 0
23 -18 -205 0
-23 18 -205 0
-23 -18 205 0
25 24 95 0
25 -24 -95 0
-25 24 -95 0
-25 -24 95 0
26 24 101 0
26 -24 -101 0
-26 24 -101 0
-26 -24 101 0
27 24 128 0
27 -24 -128 0
-27 24 -128 0
-27 -24 128 0
28 24 198 0
28 -24 -198 0
-28 24 -198 0
-28 -24 198 0
29 24 206 0
29 -24 -206 0
-29 24 -206 0
-29 -24 206 0
31 30 117 0
31 -30 -117 0
-31 30 -117 0
-31 -30 117 0
32 30 157 0
32 -30 -157 0
-32 30 -157 0
-32 -30 157 0
33 30 174 0
33 -30 -174 0
-33 30 -174 0
-33 -30 174 0
34 30 177 0
34 -30 -177 0
-34 30 -177 0
-34 -30 177 0
35 30 197 0
35 -30 -197 0
-35 30 -197 0
-35 -30 197 0
37 36 78 0
37 -36 -78 0
-37 36 -78 0
-37 -36 78 0
38 36 160 0
38 -36 -160 0
-38 36 -160 0
-38 -36 160 0
39 36 201 0
39 -36 -201 0
-39 36 -201 0
-39 -36 201 0
40 36 206 0
40 -36 -206 0
-40 36 -206 0
-40 -36 206 0
42 41 105 0
42 -41 -105 0
-42 41 -105 0
-42 -41 105 0
43 41 121 0
43 -41 -121 0
-43 41 -121 0
-43 -41 121 0
45 44 57 0
45 -44 -57 0
-45 44 -57 0
-45 -44 57 0
46 44 105 0
46 -44 -105 0
-46 44 -105 0
-46 -44 105 0
47 44 112 0
47 -44 -112 0
-47 44 -112 0
-47 -44 112 0
48 44 143 0
48 -44 -143 0
-48 44 -143 0
-48 -44 143 0
49 44 173 0
49 -44 -173 0
-49 44 -173 0
-49 -44 173 0
50 44 191 0
50 -44 -191 0
-50 44 -191 0
-50 -44 191 0
52 51 125 0
52 -51 -125 0
-52 51 -125 0
-52 -51 125 0
53 51 211 0
53 -51 -211 0
-53 51 -211 0
-53 -51 211 0
55 54 152 0
55 -54 -152 0
-55 54 -152 0
-55 -54 152 0
56 54 205 0
56 -54 -205 0
-56 54 -205 0
-56 -54 205 0
58 57 159 0
58 -57 -159 0
-58 57 -159 0
-58 -57 159 0
59 57 191 0
59 -57 -191 0
-59 57 -191 0
-59 -57 191 0
60 57 198 0
60 -57 -198 0
-60 57 -198 0
-60 -57 198 0
62 61 105 0
62 -61 -105 0
-62 61 -105 0
-62 -61 105 0
63 61 173 0
63 -61 -173 0
-63 61 -173 0
-63 -61 173 0
64 61 174 0
64 -61 -174 0
-64 61 -174 0
-64 -61 174 0
65 61 191 0
65 -61 -191 0
-65 61 -191 0
-65 -61 191 0
66 61 201 0
66 -61 -201 0
-66 61 -201 0
-66 -61 201 0
68 67 117 0
68 -67 -117 0
-68 67 -117 0
-68 -67 117 0
69 67 143 0
69 -67 -143 0
-69 67 -143 0
-69 -67 143 0
71 70 89 0
71 -70 -89 0
-71 70 -89 0
-71 -70 89 0
72 70 95 0
72 -70 -95 0
-72 70 -95 0
-72 -70 95 0
73 70 128 0
73 -70 -128 0
-73 70 -128 0
-73 -70 128 0
74 70 152 0
74 -70 -152 0
-74 70 -152 0
-74 -70 152 0
75 70 185 0
75 -70 -185 0
-75 70 -185 0
-75 -70 185 0
77 76 128 0
77 -76 -128 0
-77 76 -128 0
-77 -76 128 0
79 78 83 0
79 -78 -83 0
-79 78 -83 0
-79 -78 83 0
80 78 174 0
80 -78 -174 0
-80 78 -174 0
-80 -78 174 0
81 78 199 0
81 -78 -199 0
-81 78 -199 0
-81 -78 199 0
82 78 206 0
82 -78 -206 0
-82 78 -206 0
-82 -78 206 0
84 83 152 0
84 -83 -152 0
-84 83 -152 0
-84 -83 152 0
85 83 160 0
85 -83 -160 0
-85 83 -160 0
-85 -83 160 0
86 83 174 0
86 -83 -174 0
-86 83 -174 0
-86 -83 174 0
87 83 185 0
87 -83 -185 0
-87 83 -185 0
-87 -83 185 0
88 83 197 0
88 -83 -197 0
-88 83 -197 0
-88 -83 197 0
90 89 143 0
90 -89 -143 0
-90 89 -143 0
-90 -89 143 0
92 91 125 0
92 -91 -125 0
-92 91 -125 0
-92 -91 125 0
93 91 174 0
93 -91 -174 0
-93 91 -174 0
-93 -91 174 0
94 91 207 0
94 -91 -207 0
-94 91 -207 0
-94 -91 207 0
96 95 121 0
96 -95 -121 0
-96 95 -121 0
-96 -95 121 0
97 95 165 0
97 -95 -165 0
-97 95 -165 0
-97 -95 165 0
98 95 182 0
98 -95 -182 0
-98 95 -182 0
-98 -95 182 0
100 99 145 0
100 -99 -145 0
-100 99 -145 0
-100 -99 145 0
102 101 128 0
102 -101 -128 0
-102 101 -128 0
-102 -101 128 0
103 101 141 0
103 -101 -141 0
-103 101 -141 0
-103 -101 141 0
104 101 192 0
104 -101 -192 0
-104 101 -192 0
-104 -101 192 0
106 105 171 0
106 -105 -171 0
-106 105 -171 0
-106 -105 171 0
108 107 133 0
108 -107 -133 0
-108 107 -133 0
-108 -107 133 0
109 107 152 0
109 -107 -152 0
-109 107 -152 0
-109 -107 152 0
110 107 177 0
110 -107 -177 0
-110 107 -177 0
-110 -107 177 0
113 112 143 0
113 -112 -143 0
-113 112 -143 0
-113 -112 143 0
114 112 157 0
114 -112 -157 0
-114 112 -157 0
-114 -112 157 0
115 112 191 0
115 -112 -191 0
-115 112 -191 0
-115 -112 191 0
116 112 210 0
116 -112 -210 0
-116 112 -210 0
-116 -112 210 0
119 118 125 0
119 -118 -125 0
-119 118 -125 0
-119 -118 125 0
120 118 193 0
120 -118 -193 0
-120 118 -193 0
-120 -118 193 0
122 121 157 0
122 -121 -157 0
-122 121 -157 0
-122 -121 157 0
123 121 159 0
123 -121 -159 0
-123 121 -159 0
-123 -121 159 0
126 125 143 0
126 -125 -143 0
-126 125 -143 0
-126 -125 143 0
127 125 182 0
127 -125 -182 0
-127 125 -182 0
-127 -125 182 0
129 128 141 0
129 -128 -141 0
-129 128 -141 0
-129 -128 141 0
130 128 197 0
130 -128 -197 0
-130 128 -197 0
-130 -128 197 0
131 128 205 0
131 -128 -205 0
-131 128 -205 0
-131 -128 205 0
132 128 211 0
132 -128 -211 0
-132 128 -211 0
-132 -128 211 0
134 133 201 0
134 -133 -201 0
-134 133 -201 0
-134 -133 201 0
135 133 205 0
135 -133 -205 0
-135 133 -205 0
-135 -133 205 0
136 133 209 0
136 -133 -209 0
-136 133 -209 0
-136 -133 209 0
138 137 149 0
138 -137 -149 0
-138 137 -149 0
-138 -137 149 0
139 137 185 0
139 -137 -185 0
-139 137 -185 0
-139 -137 185 0
140 137 205 0
140 -137 -205 0
-140 137 -205 0
-140 -137 205 0
142 141 206 0
142 -141 -206 0
-142 141 -206 0
-142 -141 206 0
144 143 165 0
144 -143 -165 0
-144 143 -165 0
-144 -143 165 0
146 145 168 0
146 -145 -168 0
-146 145 -168 0
-146 -145 168 0
147 145 192 0
147 -145 -192 0
-147 145 -192 0
-147 -145 192 0
148 145 206 0
148 -145 -206 0
-148 145 -206 0
-148 -145 206 0
150 149 185 0
150 -149 -185 0
-150 149 -185 0
-150 -149 185 0
151 149 199 0
151 -149 -199 0
-151 149 -199 0
-151 -149 199 0
153 152 185 0
153 -152 -185 0
-153 152 -185 0
-153 -152 185 0
154 152 197 0
154 -152 -197 0
-154 152 -197 0
-154 -152 197 0
155 152 199 0
155 -152 -199 0
-155 152 -199 0
-155 -152 199 0
156 152 210 0
156 -152 -210 0
-156 152 -210 0
-156 -152 210 0
158 157 182 0
158 -157 -182 0
-158 157 -182 0
-158 -157 182 0
161 160 173 0
161 -160 -173 0
-161 160 -173 0
-161 -160 173 0
162 160 177 0
162 -160 -177 0
-162 160 -177 0
-162 -160 177 0
163 160 182 0
163 -160 -182 0
-163 160 -182 0
-163 -160 182 0
164 160 191 0
164 -160 -191 0
-164 160 -191 0
-164 -160 191 0
166 165 168 0
166 -165 -168 0
-166 165 -168 0
-166 -165 168 0
167 165 208 0
167 -165 -208 0
-167 165 -208 0
-167 -165 208 0
169 168 199 0
169 -168 -199 0
-169 168 -199 0
-169 -168 199 0
170 168 201 0
170 -168 -201 0
-170 168 -201 0
-170 -168 201 0
172 171 197 0
172 -171 -197 0
-172 171 -197 0
-172 -171 197 0
175 174 197 0
175 -174 -197 0
-175 174 -197 0
-175 -174 197 0
176 174 210 0
176 -174 -210 0
-176 174 -210 0
-176 -174 210 0
178 177 206 0
178 -177 -206 0
-178 177 -206 0
-178 -177 206 0
179 177 210 0
179 -177 -210 0
-179 177 -210 0
-179 -177 210 0
181 180 192 0
181 -180 -192 0
-181 180 -192 0
-181 -180 192 0
184 183 185 0
184 -183 -185 0
-184 183 -185 0
-184 -183 185 0
186 185 190 0
186 -185 -190 0
-186 185 -190 0
-186 -185 190 0
187 185 197 0
187 -185 -197 0
-187 185 -197 0
-187 -185 197 0
188 185 201 0
188 -185 -201 0
-188 185 -201 0
-188 -185 201 0
189 185 205 0
189 -185 -205 0
-189 185 -205 0
-189 -185 205 0
194 193 209 0
194 -193 -209 0
-194 193 -209 0
-194 -193 209 0
196 195 210 0
196 -195 -210 0
-196 195 -210 0
-196 -195 210 0
200 199 207 0
200 -199 -207 0
-200 199 -207 0
-200 -199 207 0
202 201 203 0
202 -201 -203 0
-202 201 -203 0
-202 -201 203 0
204 203 206 0
204 -203 -206 0
-204 203 -206 0
-204 -203 206 0
